p cnf 225 1
225 0
w 1 0.165869
w 2 1 0
w 2 -1 1
w 3 2 0
w 3 -2 1
w 4 3 0.366893
w 4 -3 0.673414
w 5 4 0.422276
w 5 -4 0.759009
w 6 5 0
w 6 -5 1
w 7 6 0
w 7 -6 1
w 8 7 0.00130581
w 8 -7 0.791707
w 9 8 0.948993
w 9 -8 0.09519
w 10 9 0.804826
w 10 -9 0.245439
w 11 10 0.020604
w 11 -10 0.215929
w 12 11 1
w 12 -11 0
w 13 12 0
w 13 -12 1
w 14 13 0
w 14 -13 1
w 15 14 0
w 15 -14 1
w 16 1 0.92708
w 16 -1 0.0265198
w 17 16 2 0
w 17 16 -2 1
w 17 -16 2 1
w 17 -16 -2 0
w 18 17 3 0.270003
w 18 17 -3 0.977222
w 18 -17 3 0.759919
w 18 -17 -3 0.271309
w 19 18 4 0.363259
w 19 18 -4 0.220302
w 19 -18 4 0.864119
w 19 -18 -4 0.0816658
w 20 19 5 1
w 20 19 -5 1
w 20 -19 5 0
w 20 -19 -5 1
w 21 20 6 1
w 21 20 -6 1
w 21 -20 6 0
w 21 -20 -6 1
w 22 21 7 1
w 22 21 -7 0
w 22 -21 7 0
w 22 -21 -7 0
w 23 22 8 0.728484
w 23 22 -8 0.4447
w 23 -22 8 0.818719
w 23 -22 -8 0.701133
w 24 23 9 1
w 24 23 -9 1
w 24 -23 9 0
w 24 -23 -9 1
w 25 24 10 0
w 25 24 -10 1
w 25 -24 10 1
w 25 -24 -10 1
w 26 25 11 0.420959
w 26 25 -11 0.150241
w 26 -25 11 0.651193
w 26 -25 -11 0.746446
w 27 26 12 0
w 27 26 -12 1
w 27 -26 12 1
w 27 -26 -12 1
w 28 27 13 1
w 28 27 -13 0
w 28 -27 13 0
w 28 -27 -13 1
w 29 28 14 1
w 29 28 -14 0
w 29 -28 14 1
w 29 -28 -14 1
w 30 29 15 0.434603
w 30 29 -15 0.981296
w 30 -29 15 0.792192
w 30 -29 -15 0.794634
w 31 16 0
w 31 -16 1
w 32 31 17 0
w 32 31 -17 1
w 32 -31 17 1
w 32 -31 -17 0
w 33 32 18 0.631621
w 33 32 -18 0.907387
w 33 -32 18 0.990444
w 33 -32 -18 0.377624
w 34 33 19 0
w 34 33 -19 0
w 34 -33 19 1
w 34 -33 -19 1
w 35 34 20 1
w 35 34 -20 0
w 35 -34 20 0
w 35 -34 -20 0
w 36 35 21 1
w 36 35 -21 0
w 36 -35 21 1
w 36 -35 -21 0
w 37 36 22 0
w 37 36 -22 1
w 37 -36 22 0
w 37 -36 -22 1
w 38 37 23 0.623437
w 38 37 -23 0.638919
w 38 -37 23 0.371902
w 38 -37 -23 0.603865
w 39 38 24 0.208879
w 39 38 -24 0.235486
w 39 -38 24 0.707246
w 39 -38 -24 0.199324
w 40 39 25 0.902649
w 40 39 -25 0.021383
w 40 -39 25 0.0464951
w 40 -39 -25 0.312491
w 41 40 26 0.505025
w 41 40 -26 0.458683
w 41 -40 26 0.316684
w 41 -40 -26 0.984606
w 42 41 27 0
w 42 41 -27 1
w 42 -41 27 1
w 42 -41 -27 1
w 43 42 28 0.605105
w 43 42 -28 0.462224
w 43 -42 28 0.110814
w 43 -42 -28 0.853575
w 44 43 29 0
w 44 43 -29 0
w 44 -43 29 1
w 44 -43 -29 1
w 45 44 30 1
w 45 44 -30 0
w 45 -44 30 1
w 45 -44 -30 1
w 46 31 0.929474
w 46 -31 0.409835
w 47 46 32 0.975969
w 47 46 -32 0.722326
w 47 -46 32 0.32984
w 47 -46 -32 0.480994
w 48 47 33 1
w 48 47 -33 0
w 48 -47 33 1
w 48 -47 -33 1
w 49 48 34 0
w 49 48 -34 1
w 49 -48 34 0
w 49 -48 -34 0
w 50 49 35 0.130631
w 50 49 -35 0.922996
w 50 -49 35 0.96458
w 50 -49 -35 0.926611
w 51 50 36 0
w 51 50 -36 0
w 51 -50 36 1
w 51 -50 -36 1
w 52 51 37 0
w 52 51 -37 0
w 52 -51 37 0
w 52 -51 -37 1
w 53 52 38 0.644807
w 53 52 -38 0.70269
w 53 -52 38 0.403948
w 53 -52 -38 0.974647
w 54 53 39 1
w 54 53 -39 1
w 54 -53 39 1
w 54 -53 -39 0
w 55 54 40 0.0448219
w 55 54 -40 0.362319
w 55 -54 40 0.911693
w 55 -54 -40 0.0646387
w 56 55 41 0
w 56 55 -41 0
w 56 -55 41 0
w 56 -55 -41 1
w 57 56 42 1
w 57 56 -42 1
w 57 -56 42 1
w 57 -56 -42 0
w 58 57 43 1
w 58 57 -43 0
w 58 -57 43 1
w 58 -57 -43 1
w 59 58 44 0.16236
w 59 58 -44 0.379774
w 59 -58 44 0.462286
w 59 -58 -44 0.566308
w 60 59 45 0
w 60 59 -45 0
w 60 -59 45 0
w 60 -59 -45 1
w 61 46 1
w 61 -46 0
w 62 61 47 0
w 62 61 -47 0
w 62 -61 47 0
w 62 -61 -47 1
w 63 62 48 0
w 63 62 -48 1
w 63 -62 48 1
w 63 -62 -48 1
w 64 63 49 0.0969361
w 64 63 -49 0.938239
w 64 -63 49 0.188431
w 64 -63 -49 0.305888
w 65 64 50 0.221306
w 65 64 -50 0.786626
w 65 -64 50 0.360833
w 65 -64 -50 0.980902
w 66 65 51 0.740607
w 66 65 -51 0.443188
w 66 -65 51 0.515294
w 66 -65 -51 0.0950277
w 67 66 52 0
w 67 66 -52 0
w 67 -66 52 0
w 67 -66 -52 1
w 68 67 53 0.724492
w 68 67 -53 0.127414
w 68 -67 53 0.474492
w 68 -67 -53 0.129208
w 69 68 54 0.647386
w 69 68 -54 0.729194
w 69 -68 54 0.168803
w 69 -68 -54 0.29997
w 70 69 55 0
w 70 69 -55 1
w 70 -69 55 1
w 70 -69 -55 1
w 71 70 56 0.0151649
w 71 70 -56 0.531345
w 71 -70 56 0.48942
w 71 -70 -56 0.375998
w 72 71 57 0.438406
w 72 71 -57 0.116605
w 72 -71 57 0.955436
w 72 -71 -57 0.9537
w 73 72 58 0
w 73 72 -58 0
w 73 -72 58 0
w 73 -72 -58 1
w 74 73 59 0
w 74 73 -59 1
w 74 -73 59 0
w 74 -73 -59 0
w 75 74 60 1
w 75 74 -60 0
w 75 -74 60 0
w 75 -74 -60 1
w 76 61 0.462963
w 76 -61 0.724653
w 77 76 62 0.852261
w 77 76 -62 0.0346926
w 77 -76 62 0.620509
w 77 -76 -62 0.867426
w 78 77 63 0.109929
w 78 77 -63 0.243424
w 78 -77 63 0.0782856
w 78 -77 -63 0.548335
w 79 78 64 0
w 79 78 -64 0
w 79 -78 64 0
w 79 -78 -64 1
w 80 79 65 0
w 80 79 -65 1
w 80 -79 65 0
w 80 -79 -65 0
w 81 80 66 0.526326
w 81 80 -66 0.943539
w 81 -80 66 0.356124
w 81 -80 -66 0.747164
w 82 81 67 0.959169
w 82 81 -67 0.267972
w 82 -81 67 0.418405
w 82 -81 -67 0.683822
w 83 82 68 0
w 83 82 -68 1
w 83 -82 68 1
w 83 -82 -68 0
w 84 83 69 0
w 84 83 -69 0
w 84 -83 69 1
w 84 -83 -69 0
w 85 84 70 1
w 85 84 -70 0
w 85 -84 70 0
w 85 -84 -70 0
w 86 85 71 0
w 86 85 -71 0
w 86 -85 71 1
w 86 -85 -71 1
w 87 86 72 0
w 87 86 -72 1
w 87 -86 72 1
w 87 -86 -72 1
w 88 87 73 0.784343
w 88 87 -73 0.661455
w 88 -87 73 0.960419
w 88 -87 -73 0.468165
w 89 88 74 0.231085
w 89 88 -74 0.18668
w 89 -88 74 0.653337
w 89 -88 -74 0.369177
w 90 89 75 1
w 90 89 -75 1
w 90 -89 75 1
w 90 -89 -75 0
w 91 76 0
w 91 -76 1
w 92 91 77 0
w 92 91 -77 0
w 92 -91 77 1
w 92 -91 -77 1
w 93 92 78 0.636372
w 93 92 -78 0.0925586
w 93 -92 78 0.330748
w 93 -92 -78 0.105422
w 94 93 79 0.91732
w 94 93 -79 0.930596
w 94 -93 79 0.13236
w 94 -93 -79 0.459334
w 95 94 80 0.793815
w 95 94 -80 0.419752
w 95 -94 80 0.183104
w 95 -94 -80 0.640957
w 96 95 81 0.369785
w 96 95 -81 0.294295
w 96 -95 81 0.0200144
w 96 -95 -81 0.841018
w 97 96 82 0.770708
w 97 96 -82 0.67509
w 97 -96 82 0.897677
w 97 -96 -82 0.262948
w 98 97 83 0.898092
w 98 97 -83 0.0683936
w 98 -97 83 0.611233
w 98 -97 -83 0.987296
w 99 98 84 0
w 99 98 -84 0
w 99 -98 84 0
w 99 -98 -84 1
w 100 99 85 0.872395
w 100 99 -85 0.547015
w 100 -99 85 0.659685
w 100 -99 -85 0.00475542
w 101 100 86 0
w 101 100 -86 1
w 101 -100 86 0
w 101 -100 -86 0
w 102 101 87 0
w 102 101 -87 1
w 102 -101 87 0
w 102 -101 -87 0
w 103 102 88 0.867661
w 103 102 -88 0.443621
w 103 -102 88 0.495256
w 103 -102 -88 0.130608
w 104 103 89 1
w 104 103 -89 1
w 104 -103 89 0
w 104 -103 -89 1
w 105 104 90 0
w 105 104 -90 1
w 105 -104 90 0
w 105 -104 -90 0
w 106 91 0.245874
w 106 -91 0.436236
w 107 106 92 0
w 107 106 -92 0
w 107 -106 92 1
w 107 -106 -92 0
w 108 107 93 1
w 108 107 -93 1
w 108 -107 93 1
w 108 -107 -93 0
w 109 108 94 1
w 109 108 -94 1
w 109 -108 94 0
w 109 -108 -94 1
w 110 109 95 0
w 110 109 -95 0
w 110 -109 95 1
w 110 -109 -95 1
w 111 110 96 0.0893782
w 111 110 -96 0.479809
w 111 -110 96 0.0345505
w 111 -110 -96 0.0936896
w 112 111 97 0.923771
w 112 111 -97 0.82709
w 112 -111 97 0.0991619
w 112 -111 -97 0.360007
w 113 112 98 0
w 113 112 -98 0
w 113 -112 98 1
w 113 -112 -98 0
w 114 113 99 0.313324
w 114 113 -99 0.887719
w 114 -113 99 0.616902
w 114 -113 -99 0.566275
w 115 114 100 0
w 115 114 -100 1
w 115 -114 100 1
w 115 -114 -100 0
w 116 115 101 1
w 116 115 -101 0
w 116 -115 101 0
w 116 -115 -101 1
w 117 116 102 0.642332
w 117 116 -102 0.0438974
w 117 -116 102 0.330219
w 117 -116 -102 0.676882
w 118 117 103 0
w 118 117 -103 0
w 118 -117 103 1
w 118 -117 -103 0
w 119 118 104 0.184854
w 119 118 -104 0.632461
w 119 -118 104 0.763253
w 119 -118 -104 0.17274
w 120 119 105 0
w 120 119 -105 0
w 120 -119 105 1
w 120 -119 -105 0
w 121 106 1
w 121 -106 0
w 122 121 107 0.640094
w 122 121 -107 0.95984
w 122 -121 107 0.280627
w 122 -121 -107 0.692953
w 123 122 108 1
w 123 122 -108 1
w 123 -122 108 0
w 123 -122 -108 1
w 124 123 109 1
w 124 123 -109 1
w 124 -123 109 1
w 124 -123 -109 0
w 125 124 110 1
w 125 124 -110 0
w 125 -124 110 0
w 125 -124 -110 1
w 126 125 111 0
w 126 125 -111 1
w 126 -125 111 1
w 126 -125 -111 0
w 127 126 112 0
w 127 126 -112 0
w 127 -126 112 0
w 127 -126 -112 1
w 128 127 113 0.110362
w 128 127 -113 0.681543
w 128 -127 113 0.535349
w 128 -127 -113 0.315987
w 129 128 114 0.0956086
w 129 128 -114 0.476132
w 129 -128 114 0.314332
w 129 -128 -114 0.2982
w 130 129 115 0.386152
w 130 129 -115 0.177673
w 130 -129 115 0.0218031
w 130 -129 -115 0.641479
w 131 130 116 0.328109
w 131 130 -116 0.179475
w 131 -130 116 0.098588
w 131 -130 -116 0.819269
w 132 131 117 0
w 132 131 -117 0
w 132 -131 117 1
w 132 -131 -117 1
w 133 132 118 0.672921
w 133 132 -118 0.631204
w 133 -132 118 0.835434
w 133 -132 -118 0.823443
w 134 133 119 0
w 134 133 -119 1
w 134 -133 119 0
w 134 -133 -119 0
w 135 134 120 1
w 135 134 -120 0
w 135 -134 120 1
w 135 -134 -120 0
w 136 121 1
w 136 -121 0
w 137 136 122 0.427901
w 137 136 -122 0.628357
w 137 -136 122 0.44246
w 137 -136 -122 0.756011
w 138 137 123 0.541048
w 138 137 -123 0.57528
w 138 -137 123 0.157764
w 138 -137 -123 0.843677
w 139 138 124 1
w 139 138 -124 1
w 139 -138 124 0
w 139 -138 -124 1
w 140 139 125 1
w 140 139 -125 0
w 140 -139 125 1
w 140 -139 -125 1
w 141 140 126 1
w 141 140 -126 0
w 141 -140 126 1
w 141 -140 -126 0
w 142 141 127 0
w 142 141 -127 0
w 142 -141 127 0
w 142 -141 -127 1
w 143 142 128 0.664217
w 143 142 -128 0.560915
w 143 -142 128 0.705501
w 143 -142 -128 0.472049
w 144 143 129 1
w 144 143 -129 0
w 144 -143 129 1
w 144 -143 -129 0
w 145 144 130 0
w 145 144 -130 0
w 145 -144 130 0
w 145 -144 -130 1
w 146 145 131 0.927915
w 146 145 -131 0.594795
w 146 -145 131 0.762671
w 146 -145 -131 0.0676888
w 147 146 132 0.180693
w 147 146 -132 0.457255
w 147 -146 132 0.204912
w 147 -146 -132 0.907501
w 148 147 133 0.253893
w 148 147 -133 0.241296
w 148 -147 133 0.0943349
w 148 -147 -133 0.289753
w 149 148 134 1
w 149 148 -134 1
w 149 -148 134 0
w 149 -148 -134 0
w 150 149 135 0
w 150 149 -135 0
w 150 -149 135 1
w 150 -149 -135 1
w 151 136 0
w 151 -136 1
w 152 151 137 0.40015
w 152 151 -137 0.117196
w 152 -151 137 0.845379
w 152 -151 -137 0.957978
w 153 152 138 1
w 153 152 -138 1
w 153 -152 138 1
w 153 -152 -138 0
w 154 153 139 0.570055
w 154 153 -139 0.401743
w 154 -153 139 0.808843
w 154 -153 -139 0.142801
w 155 154 140 0.0501395
w 155 154 -140 0.237135
w 155 -154 140 0.94539
w 155 -154 -140 0.40989
w 156 155 141 0
w 156 155 -141 1
w 156 -155 141 0
w 156 -155 -141 0
w 157 156 142 0
w 157 156 -142 1
w 157 -156 142 0
w 157 -156 -142 0
w 158 157 143 0.0202329
w 158 157 -143 0.829884
w 158 -157 143 0.893659
w 158 -157 -143 0.865612
w 159 158 144 0.938769
w 159 158 -144 0.305787
w 159 -158 144 0.50851
w 159 -158 -144 0.0515687
w 160 159 145 0.409852
w 160 159 -145 0.621623
w 160 -159 145 0.904362
w 160 -159 -145 0.218696
w 161 160 146 0.559998
w 161 160 -146 0.268835
w 161 -160 146 0.0015594
w 161 -160 -146 0.505388
w 162 161 147 0.28252
w 162 161 -147 0.404748
w 162 -161 147 0.0092798
w 162 -161 -147 0.312807
w 163 162 148 0.362462
w 163 162 -148 0.373202
w 163 -162 148 0.111339
w 163 -162 -148 0.683912
w 164 163 149 0.887802
w 164 163 -149 0.704145
w 164 -163 149 0.632818
w 164 -163 -149 0.78146
w 165 164 150 0.42068
w 165 164 -150 0.72023
w 165 -164 150 0.875544
w 165 -164 -150 0.92919
w 166 151 0.378163
w 166 -151 0.339042
w 167 166 152 0
w 167 166 -152 0
w 167 -166 152 1
w 167 -166 -152 0
w 168 167 153 0.159405
w 168 167 -153 0.347911
w 168 -167 153 0.505298
w 168 -167 -153 0.441925
w 169 168 154 0.514578
w 169 168 -154 0.754732
w 169 -168 154 0.482786
w 169 -168 -154 0.87704
w 170 169 155 0
w 170 169 -155 1
w 170 -169 155 0
w 170 -169 -155 0
w 171 170 156 0
w 171 170 -156 1
w 171 -170 156 0
w 171 -170 -156 0
w 172 171 157 0.710399
w 172 171 -157 0.913557
w 172 -171 157 0.755414
w 172 -171 -157 0.0885614
w 173 172 158 1
w 173 172 -158 0
w 173 -172 158 0
w 173 -172 -158 0
w 174 173 159 1
w 174 173 -159 0
w 174 -173 159 0
w 174 -173 -159 1
w 175 174 160 0.314178
w 175 174 -160 0.656786
w 175 -174 160 0.662743
w 175 -174 -160 0.796964
w 176 175 161 0.790677
w 176 175 -161 0.391089
w 176 -175 161 0.0947786
w 176 -175 -161 0.721546
w 177 176 162 0.359876
w 177 176 -162 0.285233
w 177 -176 162 0.136402
w 177 -176 -162 0.19473
w 178 177 163 1
w 178 177 -163 1
w 178 -177 163 0
w 178 -177 -163 0
w 179 178 164 0.435756
w 179 178 -164 0.0242682
w 179 -178 164 0.364776
w 179 -178 -164 0.246093
w 180 179 165 0
w 180 179 -165 1
w 180 -179 165 0
w 180 -179 -165 0
w 181 166 0
w 181 -166 1
w 182 181 167 0
w 182 181 -167 0
w 182 -181 167 1
w 182 -181 -167 0
w 183 182 168 0
w 183 182 -168 1
w 183 -182 168 1
w 183 -182 -168 1
w 184 183 169 0.165246
w 184 183 -169 0.651551
w 184 -183 169 0.865207
w 184 -183 -169 0.434846
w 185 184 170 0.770336
w 185 184 -170 0.618003
w 185 -184 170 0.647001
w 185 -184 -170 0.764026
w 186 185 171 1
w 186 185 -171 1
w 186 -185 171 0
w 186 -185 -171 1
w 187 186 172 0.182854
w 187 186 -172 0.799254
w 187 -186 172 0.84709
w 187 -186 -172 0.208065
w 188 187 173 0.301171
w 188 187 -173 0.890062
w 188 -187 173 0.872091
w 188 -187 -173 0.552217
w 189 188 174 0
w 189 188 -174 0
w 189 -188 174 1
w 189 -188 -174 1
w 190 189 175 0.0869641
w 190 189 -175 0.0758173
w 190 -189 175 0.361051
w 190 -189 -175 0.952172
w 191 190 176 0.13262
w 191 190 -176 0.722507
w 191 -190 176 0.128667
w 191 -190 -176 0.779621
w 192 191 177 0
w 192 191 -177 1
w 192 -191 177 1
w 192 -191 -177 0
w 193 192 178 1
w 193 192 -178 0
w 193 -192 178 1
w 193 -192 -178 0
w 194 193 179 0.756665
w 194 193 -179 0.470781
w 194 -193 179 0.763259
w 194 -193 -179 0.628756
w 195 194 180 0
w 195 194 -180 1
w 195 -194 180 1
w 195 -194 -180 1
w 196 181 0.92685
w 196 -181 0.372594
w 197 196 182 0.287902
w 197 196 -182 0.324766
w 197 -196 182 0.156367
w 197 -196 -182 0.420522
w 198 197 183 0
w 198 197 -183 1
w 198 -197 183 1
w 198 -197 -183 0
w 199 198 184 0.14914
w 199 198 -184 0.949737
w 199 -198 184 0.104143
w 199 -198 -184 0.471661
w 200 199 185 0.356507
w 200 199 -185 0.64127
w 200 -199 185 0.488066
w 200 -199 -185 0.113173
w 201 200 186 1
w 201 200 -186 1
w 201 -200 186 0
w 201 -200 -186 1
w 202 201 187 1
w 202 201 -187 0
w 202 -201 187 1
w 202 -201 -187 0
w 203 202 188 0.616833
w 203 202 -188 0.567152
w 203 -202 188 0.103458
w 203 -202 -188 0.7732
w 204 203 189 0.150731
w 204 203 -189 0.058233
w 204 -203 189 0.187817
w 204 -203 -189 0.684538
w 205 204 190 0.838851
w 205 204 -190 0.833678
w 205 -204 190 0.475429
w 205 -204 -190 0.942994
w 206 205 191 0
w 206 205 -191 0
w 206 -205 191 1
w 206 -205 -191 1
w 207 206 192 1
w 207 206 -192 0
w 207 -206 192 1
w 207 -206 -192 1
w 208 207 193 0.555847
w 208 207 -193 0.546111
w 208 -207 193 0.356254
w 208 -207 -193 0.526977
w 209 208 194 0.134946
w 209 208 -194 0.14381
w 209 -208 194 0.392512
w 209 -208 -194 0.238404
w 210 209 195 0.380186
w 210 209 -195 0.389135
w 210 -209 195 0.975242
w 210 -209 -195 0.568002
w 211 196 1
w 211 -196 0
w 212 211 197 1
w 212 211 -197 0
w 212 -211 197 1
w 212 -211 -197 0
w 213 212 198 0
w 213 212 -198 0
w 213 -212 198 1
w 213 -212 -198 0
w 214 213 199 1
w 214 213 -199 1
w 214 -213 199 0
w 214 -213 -199 0
w 215 214 200 0.957781
w 215 214 -200 0.781123
w 215 -214 200 0.29945
w 215 -214 -200 0.783142
w 216 215 201 0.44326
w 216 215 -201 0.175654
w 216 -215 201 0.154472
w 216 -215 -201 0.360269
w 217 216 202 0.543608
w 217 216 -202 0.335511
w 217 -216 202 0.123842
w 217 -216 -202 0.617281
w 218 217 203 0.530695
w 218 217 -203 0.524632
w 218 -217 203 0.812809
w 218 -217 -203 0.880543
w 219 218 204 0.879471
w 219 218 -204 0.529891
w 219 -218 204 0.896621
w 219 -218 -204 0.524496
w 220 219 205 0.11458
w 220 219 -205 0.99921
w 220 -219 205 0.808541
w 220 -219 -205 0.526251
w 221 220 206 1
w 221 220 -206 1
w 221 -220 206 0
w 221 -220 -206 0
w 222 221 207 1
w 222 221 -207 0
w 222 -221 207 0
w 222 -221 -207 1
w 223 222 208 0.998668
w 223 222 -208 0.81935
w 223 -222 208 0.0195041
w 223 -222 -208 0.12251
w 224 223 209 1
w 224 223 -209 0
w 224 -223 209 1
w 224 -223 -209 0
w 225 224 210 0.698585
w 225 224 -210 0.54823
w 225 -224 210 0.0636391
w 225 -224 -210 0.595205